benchmarks_CP/INST_64x64/40/inst64x64_40_62.dzn
S=8;
start=[|
-1,	32,	-1,	-1,	-1,	40,	19,	-1,	48,	-1,	52,	-1,	10,	-1,	15,	57,	-1,	13,	41,	-1,	-1,	-1,	-1,	28,	24,	-1,	11,	12,	-1,	17,	27,	-1,	29,	-1,	64,	-1,	-1,	-1,	16,	56,	55,	-1,	6,	34,	44,	42,	-1,	9,	-1,	-1,	-1,	-1,	-1,	21,	35,	50,	-1,	43,	51,	23,	-1,	20,	-1,	-1|
-1,	44,	-1,	10,	21,	-1,	31,	-1,	-1,	-1,	-1,	-1,	-1,	38,	-1,	-1,	-1,	17,	-1,	-1,	51,	-1,	-1,	-1,	-1,	-1,	-1,	-1,	45,	41,	-1,	-1,	-1,	-1,	15,	50,	22,	55,	9,	-1,	-1,	-1,	-1,	-1,	-1,	63,	5,	-1,	40,	60,	57,	-1,	-1,	-1,	-1,	-1,	-1,	-1,	29,	-1,	6,	-1,	-1,	-1|
-1,	23,	-1,	61,	-1,	-1,	-1,	45,	59,	42,	32,	-1,	-1,	-1,	-1,	19,	-1,	24,	-1,	-1,	53,	-1,	57,	46,	-1,	-1,	-1,	52,	-1,	-1,	-1,	6,	58,	7,	-1,	38,	4,	-1,	44,	-1,	-1,	-1,	-1,	-1,	-1,	15,	-1,	-1,	-1,	-1,	-1,	11,	-1,	29,	2,	-1,	-1,	39,	-1,	-1,	-1,	-1,	22,	-1|
-1,	-1,	3,	-1,	24,	-1,	46,	-1,	27,	-1,	-1,	49,	14,	-1,	-1,	-1,	-1,	-1,	-1,	15,	63,	-1,	-1,	32,	-1,	-1,	-1,	36,	47,	31,	-1,	-1,	26,	-1,	42,	-1,	18,	-1,	28,	20,	2,	57,	38,	-1,	-1,	59,	48,	37,	30,	-1,	-1,	55,	6,	-1,	13,	-1,	-1,	9,	-1,	-1,	1,	-1,	34,	40|
-1,	49,	-1,	-1,	-1,	8,	4,	-1,	-1,	-1,	34,	-1,	-1,	-1,	-1,	-1,	-1,	-1,	21,	-1,	-1,	-1,	-1,	-1,	-1,	-1,	-1,	-1,	-1,	44,	57,	9,	-1,	-1,	-1,	-1,	45,	-1,	-1,	-1,	-1,	-1,	-1,	-1,	-1,	19,	-1,	13,	-1,	53,	-1,	-1,	-1,	3,	22,	63,	-1,	-1,	32,	24,	-1,	-1,	61,	11|
-1,	52,	-1,	56,	38,	-1,	-1,	-1,	46,	40,	-1,	-1,	41,	-1,	-1,	24,	-1,	-1,	18,	55,	-1,	-1,	9,	-1,	26,	-1,	-1,	-1,	-1,	34,	-1,	-1,	-1,	60,	-1,	-1,	-1,	11,	47,	43,	-1,	-1,	36,	-1,	-1,	1,	-1,	-1,	33,	-1,	-1,	44,	-1,	32,	14,	31,	-1,	-1,	-1,	15,	-1,	-1,	-1,	27|
-1,	-1,	43,	59,	41,	-1,	26,	48,	-1,	-1,	-1,	-1,	-1,	-1,	-1,	-1,	-1,	6,	-1,	33,	-1,	-1,	38,	-1,	-1,	-1,	-1,	-1,	-1,	56,	-1,	-1,	21,	-1,	34,	61,	52,	-1,	-1,	-1,	-1,	-1,	-1,	-1,	-1,	-1,	47,	-1,	-1,	8,	15,	-1,	18,	-1,	19,	64,	31,	-1,	54,	-1,	-1,	58,	44,	3|
-1,	42,	-1,	-1,	-1,	-1,	-1,	-1,	-1,	-1,	-1,	-1,	56,	-1,	12,	-1,	-1,	54,	-1,	-1,	-1,	25,	-1,	-1,	20,	30,	-1,	15,	-1,	3,	19,	-1,	-1,	63,	49,	-1,	57,	39,	40,	14,	51,	-1,	-1,	60,	-1,	-1,	-1,	-1,	-1,	61,	36,	-1,	24,	-1,	-1,	26,	-1,	55,	-1,	33,	45,	10,	46,	-1|
-1,	-1,	-1,	-1,	-1,	-1,	-1,	-1,	-1,	-1,	-1,	-1,	-1,	47,	55,	-1,	9,	41,	-1,	-1,	-1,	-1,	-1,	24,	-1,	-1,	16,	-1,	-1,	-1,	-1,	-1,	-1,	-1,	30,	59,	3,	49,	25,	-1,	-1,	-1,	1,	-1,	57,	34,	-1,	63,	-1,	46,	-1,	-1,	19,	-1,	-1,	-1,	27,	-1,	-1,	-1,	-1,	37,	-1,	62|
-1,	50,	-1,	-1,	-1,	-1,	-1,	-1,	-1,	-1,	-1,	-1,	12,	49,	-1,	-1,	-1,	22,	6,	37,	-1,	1,	-1,	19,	30,	-1,	-1,	-1,	24,	38,	-1,	-1,	62,	54,	4,	27,	-1,	-1,	-1,	-1,	-1,	-1,	51,	-1,	-1,	26,	-1,	-1,	63,	41,	-1,	-1,	-1,	-1,	10,	-1,	32,	53,	-1,	46,	-1,	21,	-1,	-1|
26,	-1,	-1,	58,	-1,	-1,	-1,	-1,	13,	-1,	-1,	-1,	39,	27,	-1,	22,	-1,	-1,	-1,	-1,	-1,	57,	4,	-1,	-1,	-1,	-1,	-1,	10,	-1,	29,	-1,	24,	28,	19,	-1,	-1,	23,	12,	64,	-1,	-1,	40,	53,	35,	-1,	-1,	-1,	-1,	-1,	-1,	-1,	-1,	-1,	44,	-1,	-1,	-1,	-1,	-1,	-1,	15,	-1,	-1|
-1,	29,	-1,	-1,	7,	-1,	-1,	10,	-1,	37,	-1,	-1,	50,	-1,	-1,	-1,	30,	-1,	59,	-1,	-1,	-1,	-1,	47,	35,	-1,	-1,	-1,	-1,	32,	-1,	18,	-1,	-1,	2,	55,	-1,	9,	-1,	53,	25,	64,	-1,	52,	-1,	-1,	36,	-1,	-1,	28,	23,	-1,	12,	-1,	-1,	1,	-1,	-1,	19,	11,	-1,	60,	40,	31|
-1,	51,	-1,	-1,	52,	-1,	-1,	-1,	-1,	35,	-1,	-1,	-1,	11,	-1,	-1,	-1,	-1,	-1,	-1,	46,	2,	-1,	44,	-1,	-1,	-1,	-1,	54,	61,	1,	42,	-1,	-1,	8,	-1,	-1,	37,	50,	21,	-1,	-1,	30,	-1,	28,	41,	-1,	-1,	-1,	5,	-1,	-1,	3,	-1,	-1,	16,	-1,	58,	-1,	47,	-1,	17,	-1,	-1|
42,	-1,	-1,	39,	37,	-1,	-1,	-1,	17,	58,	19,	15,	-1,	-1,	-1,	-1,	-1,	61,	-1,	64,	62,	29,	32,	13,	-1,	36,	46,	-1,	-1,	23,	4,	-1,	-1,	47,	16,	-1,	-1,	56,	-1,	6,	-1,	-1,	54,	-1,	-1,	22,	55,	44,	27,	-1,	-1,	-1,	-1,	-1,	-1,	-1,	-1,	-1,	-1,	8,	-1,	-1,	-1,	25|
-1,	-1,	-1,	27,	-1,	6,	56,	-1,	-1,	-1,	36,	1,	-1,	-1,	-1,	4,	-1,	-1,	-1,	-1,	-1,	17,	-1,	-1,	9,	44,	-1,	-1,	48,	-1,	-1,	13,	-1,	-1,	-1,	-1,	-1,	57,	-1,	29,	-1,	33,	-1,	-1,	37,	-1,	-1,	16,	-1,	2,	-1,	-1,	-1,	-1,	58,	-1,	54,	5,	-1,	-1,	41,	-1,	-1,	-1|
-1,	-1,	-1,	-1,	-1,	13,	47,	25,	24,	-1,	56,	-1,	-1,	40,	-1,	2,	-1,	60,	53,	18,	16,	-1,	49,	-1,	-1,	22,	-1,	34,	-1,	21,	41,	-1,	-1,	38,	-1,	-1,	-1,	63,	-1,	36,	-1,	-1,	19,	-1,	-1,	27,	62,	-1,	7,	-1,	-1,	-1,	17,	-1,	29,	-1,	6,	12,	-1,	3,	-1,	-1,	1,	9|
33,	-1,	-1,	-1,	25,	1,	21,	-1,	6,	59,	60,	-1,	-1,	-1,	-1,	11,	-1,	37,	-1,	-1,	29,	30,	-1,	-1,	48,	13,	-1,	55,	26,	-1,	-1,	-1,	52,	40,	-1,	12,	-1,	-1,	-1,	-1,	17,	-1,	35,	-1,	18,	-1,	-1,	-1,	56,	19,	-1,	24,	5,	8,	34,	-1,	15,	-1,	-1,	-1,	-1,	53,	23,	-1|
38,	-1,	53,	-1,	-1,	-1,	8,	-1,	-1,	63,	-1,	-1,	-1,	61,	14,	-1,	33,	-1,	40,	-1,	19,	-1,	47,	-1,	7,	18,	-1,	-1,	37,	54,	-1,	-1,	-1,	-1,	-1,	-1,	55,	-1,	26,	-1,	-1,	-1,	-1,	57,	-1,	23,	-1,	52,	-1,	25,	-1,	-1,	-1,	-1,	-1,	3,	44,	2,	24,	-1,	20,	1,	-1,	39|
-1,	-1,	-1,	-1,	30,	-1,	-1,	-1,	-1,	-1,	38,	-1,	-1,	32,	-1,	37,	23,	-1,	-1,	26,	-1,	13,	-1,	42,	56,	-1,	-1,	-1,	-1,	-1,	-1,	35,	-1,	-1,	-1,	-1,	11,	-1,	18,	-1,	-1,	-1,	-1,	-1,	-1,	-1,	-1,	-1,	-1,	-1,	-1,	-1,	57,	54,	-1,	44,	-1,	-1,	-1,	-1,	-1,	-1,	9,	-1|
32,	-1,	58,	-1,	18,	-1,	34,	-1,	-1,	21,	-1,	-1,	28,	-1,	-1,	-1,	-1,	-1,	61,	-1,	57,	46,	55,	-1,	17,	6,	-1,	-1,	-1,	-1,	-1,	39,	63,	2,	-1,	-1,	-1,	36,	-1,	-1,	12,	-1,	-1,	13,	-1,	-1,	-1,	-1,	20,	-1,	-1,	-1,	-1,	-1,	49,	-1,	-1,	11,	38,	-1,	48,	51,	19,	47|
-1,	56,	52,	-1,	47,	23,	2,	-1,	-1,	39,	-1,	-1,	-1,	42,	53,	-1,	28,	15,	16,	8,	35,	18,	54,	5,	-1,	10,	-1,	31,	-1,	-1,	-1,	-1,	1,	14,	-1,	-1,	37,	30,	-1,	44,	7,	58,	-1,	46,	9,	-1,	32,	20,	12,	-1,	17,	4,	-1,	50,	-1,	59,	-1,	-1,	-1,	-1,	-1,	-1,	45,	29|
-1,	-1,	-1,	11,	-1,	35,	-1,	36,	44,	7,	13,	-1,	-1,	30,	-1,	-1,	-1,	-1,	31,	-1,	41,	-1,	-1,	62,	15,	50,	-1,	58,	-1,	14,	-1,	49,	-1,	-1,	-1,	56,	43,	-1,	4,	-1,	10,	-1,	34,	27,	-1,	-1,	26,	24,	-1,	21,	6,	33,	-1,	-1,	18,	-1,	17,	8,	37,	-1,	-1,	57,	-1,	-1|
-1,	-1,	60,	-1,	-1,	14,	-1,	-1,	4,	-1,	-1,	-1,	-1,	-1,	40,	-1,	-1,	1,	-1,	12,	36,	-1,	-1,	-1,	-1,	-1,	-1,	32,	-1,	20,	-1,	34,	-1,	59,	48,	-1,	-1,	27,	62,	39,	31,	-1,	-1,	33,	-1,	-1,	19,	-1,	-1,	26,	-1,	-1,	-1,	-1,	-1,	-1,	16,	64,	63,	-1,	-1,	7,	21,	-1|
-1,	27,	55,	-1,	4,	-1,	-1,	24,	2,	15,	-1,	-1,	57,	26,	-1,	-1,	-1,	38,	-1,	-1,	-1,	32,	-1,	17,	-1,	-1,	-1,	44,	-1,	63,	52,	-1,	-1,	-1,	-1,	-1,	-1,	58,	31,	-1,	-1,	1,	-1,	56,	8,	37,	64,	60,	-1,	-1,	35,	46,	41,	-1,	-1,	51,	62,	30,	-1,	-1,	-1,	-1,	-1,	49|
16,	63,	-1,	-1,	8,	-1,	-1,	-1,	10,	-1,	-1,	-1,	-1,	-1,	-1,	-1,	3,	62,	-1,	-1,	47,	-1,	-1,	48,	-1,	25,	-1,	-1,	-1,	-1,	-1,	30,	-1,	-1,	-1,	18,	-1,	-1,	-1,	37,	61,	46,	29,	38,	-1,	-1,	-1,	-1,	2,	-1,	-1,	-1,	-1,	36,	-1,	-1,	28,	50,	9,	-1,	-1,	-1,	-1,	6|
-1,	-1,	-1,	44,	-1,	-1,	-1,	7,	-1,	48,	-1,	-1,	-1,	56,	-1,	59,	46,	55,	27,	25,	15,	16,	-1,	-1,	-1,	-1,	-1,	54,	61,	-1,	13,	-1,	6,	19,	-1,	-1,	2,	-1,	23,	-1,	-1,	32,	-1,	42,	64,	-1,	53,	-1,	24,	40,	-1,	-1,	-1,	-1,	37,	17,	-1,	-1,	18,	58,	34,	35,	36,	-1|
10,	37,	24,	-1,	48,	55,	-1,	-1,	51,	22,	39,	-1,	-1,	13,	-1,	-1,	43,	-1,	49,	19,	34,	9,	28,	20,	29,	32,	-1,	2,	6,	50,	18,	-1,	-1,	-1,	27,	11,	-1,	3,	56,	63,	-1,	-1,	-1,	-1,	54,	33,	45,	-1,	-1,	-1,	60,	52,	-1,	-1,	-1,	5,	-1,	26,	-1,	31,	61,	-1,	38,	41|
56,	-1,	-1,	-1,	-1,	39,	9,	-1,	-1,	-1,	-1,	58,	24,	57,	32,	-1,	61,	-1,	-1,	-1,	40,	-1,	-1,	-1,	-1,	-1,	-1,	-1,	-1,	-1,	-1,	-1,	-1,	42,	33,	1,	10,	-1,	-1,	31,	-1,	-1,	-1,	-1,	-1,	14,	-1,	-1,	59,	-1,	-1,	-1,	50,	48,	-1,	-1,	-1,	29,	49,	-1,	-1,	3,	62,	-1|
59,	-1,	-1,	52,	-1,	29,	-1,	-1,	-1,	60,	20,	5,	-1,	-1,	31,	-1,	37,	-1,	-1,	-1,	-1,	63,	2,	-1,	44,	-1,	-1,	-1,	49,	-1,	-1,	-1,	-1,	62,	-1,	-1,	-1,	-1,	14,	-1,	27,	19,	-1,	-1,	-1,	24,	-1,	-1,	-1,	-1,	51,	-1,	-1,	18,	-1,	47,	-1,	10,	30,	16,	-1,	55,	33,	-1|
-1,	-1,	-1,	-1,	61,	-1,	-1,	38,	28,	53,	29,	-1,	-1,	-1,	-1,	6,	-1,	64,	32,	-1,	17,	36,	-1,	-1,	-1,	-1,	37,	48,	3,	-1,	46,	14,	55,	4,	-1,	57,	-1,	-1,	41,	47,	-1,	26,	-1,	-1,	-1,	-1,	-1,	-1,	16,	13,	31,	9,	-1,	-1,	30,	12,	22,	-1,	-1,	-1,	-1,	39,	-1,	-1|
-1,	-1,	5,	42,	-1,	-1,	33,	-1,	-1,	-1,	-1,	-1,	27,	-1,	-1,	12,	-1,	-1,	-1,	-1,	39,	38,	-1,	-1,	-1,	35,	-1,	51,	-1,	-1,	-1,	-1,	17,	52,	-1,	-1,	-1,	-1,	-1,	-1,	-1,	-1,	-1,	-1,	31,	55,	-1,	-1,	-1,	-1,	3,	63,	-1,	62,	-1,	-1,	20,	-1,	-1,	-1,	-1,	-1,	14,	-1|
53,	47,	30,	-1,	-1,	17,	-1,	-1,	-1,	-1,	23,	-1,	46,	37,	-1,	-1,	18,	45,	-1,	-1,	-1,	54,	29,	-1,	41,	-1,	58,	60,	52,	-1,	33,	-1,	-1,	16,	-1,	-1,	-1,	-1,	-1,	-1,	59,	35,	43,	6,	-1,	20,	-1,	-1,	14,	-1,	42,	-1,	-1,	-1,	-1,	-1,	-1,	25,	-1,	-1,	21,	-1,	-1,	32|
-1,	-1,	-1,	-1,	-1,	-1,	-1,	42,	37,	-1,	-1,	57,	-1,	-1,	-1,	-1,	-1,	11,	-1,	-1,	-1,	-1,	-1,	-1,	25,	45,	-1,	-1,	32,	60,	31,	-1,	-1,	18,	58,	-1,	-1,	-1,	-1,	9,	-1,	53,	-1,	-1,	-1,	64,	54,	-1,	28,	-1,	-1,	61,	-1,	-1,	1,	21,	-1,	-1,	17,	-1,	62,	-1,	-1,	15|
22,	61,	14,	-1,	10,	58,	48,	49,	-1,	-1,	-1,	-1,	52,	55,	1,	-1,	40,	-1,	-1,	-1,	20,	-1,	-1,	8,	11,	17,	-1,	42,	-1,	-1,	-1,	-1,	-1,	-1,	-1,	62,	56,	-1,	54,	60,	4,	-1,	-1,	63,	-1,	35,	25,	-1,	39,	-1,	-1,	-1,	-1,	57,	-1,	-1,	13,	-1,	-1,	9,	64,	-1,	-1,	38|
-1,	-1,	47,	-1,	-1,	-1,	12,	-1,	-1,	-1,	-1,	44,	-1,	-1,	-1,	-1,	21,	-1,	-1,	56,	-1,	-1,	61,	38,	-1,	-1,	-1,	14,	46,	28,	-1,	57,	43,	5,	-1,	39,	-1,	-1,	-1,	55,	-1,	-1,	-1,	-1,	60,	-1,	11,	42,	-1,	-1,	8,	-1,	-1,	-1,	-1,	-1,	41,	-1,	-1,	25,	10,	29,	-1,	22|
-1,	16,	59,	54,	-1,	-1,	-1,	-1,	49,	47,	-1,	45,	-1,	-1,	-1,	26,	-1,	-1,	-1,	-1,	-1,	-1,	15,	31,	6,	-1,	-1,	41,	-1,	51,	-1,	-1,	-1,	-1,	-1,	-1,	-1,	-1,	20,	-1,	44,	28,	-1,	19,	-1,	-1,	8,	-1,	9,	-1,	-1,	58,	-1,	46,	-1,	13,	-1,	-1,	-1,	21,	60,	-1,	2,	23|
8,	41,	-1,	30,	-1,	-1,	28,	55,	-1,	-1,	-1,	4,	-1,	-1,	-1,	54,	-1,	-1,	44,	-1,	60,	-1,	-1,	-1,	-1,	-1,	-1,	-1,	-1,	37,	-1,	-1,	-1,	-1,	61,	-1,	-1,	-1,	59,	-1,	6,	5,	-1,	40,	1,	-1,	-1,	34,	-1,	-1,	14,	32,	47,	-1,	45,	-1,	-1,	-1,	31,	35,	-1,	-1,	-1,	-1|
-1,	-1,	26,	-1,	-1,	-1,	-1,	-1,	50,	-1,	46,	-1,	-1,	-1,	-1,	23,	25,	19,	1,	-1,	-1,	28,	12,	57,	22,	-1,	-1,	4,	-1,	5,	55,	48,	13,	-1,	-1,	44,	-1,	64,	15,	16,	-1,	41,	-1,	-1,	-1,	9,	-1,	-1,	-1,	-1,	59,	-1,	-1,	-1,	-1,	-1,	40,	36,	47,	42,	33,	61,	54,	-1|
44,	-1,	-1,	53,	5,	-1,	-1,	-1,	-1,	51,	-1,	7,	61,	2,	-1,	60,	41,	42,	55,	-1,	-1,	-1,	37,	-1,	-1,	-1,	-1,	-1,	-1,	64,	12,	-1,	-1,	-1,	-1,	-1,	-1,	-1,	30,	8,	-1,	-1,	20,	14,	-1,	-1,	-1,	-1,	-1,	-1,	63,	54,	-1,	35,	-1,	-1,	-1,	-1,	-1,	18,	27,	-1,	-1,	-1|
-1,	-1,	-1,	-1,	-1,	11,	-1,	37,	-1,	-1,	43,	-1,	-1,	-1,	-1,	-1,	-1,	33,	22,	-1,	58,	23,	64,	-1,	-1,	-1,	-1,	-1,	-1,	-1,	54,	21,	-1,	-1,	-1,	-1,	-1,	48,	-1,	42,	-1,	61,	50,	7,	47,	-1,	-1,	-1,	-1,	-1,	-1,	-1,	-1,	2,	-1,	62,	26,	-1,	-1,	45,	52,	-1,	8,	-1|
-1,	-1,	-1,	38,	-1,	32,	53,	-1,	-1,	-1,	-1,	-1,	59,	-1,	8,	-1,	20,	-1,	25,	23,	-1,	-1,	62,	-1,	64,	-1,	22,	-1,	-1,	2,	-1,	-1,	-1,	-1,	36,	-1,	-1,	50,	-1,	-1,	13,	-1,	24,	-1,	6,	61,	18,	33,	-1,	-1,	-1,	-1,	40,	-1,	4,	-1,	1,	-1,	-1,	-1,	-1,	19,	-1,	28|
-1,	-1,	-1,	-1,	49,	51,	-1,	14,	-1,	-1,	-1,	-1,	-1,	-1,	-1,	-1,	26,	-1,	-1,	-1,	-1,	-1,	-1,	-1,	57,	-1,	-1,	-1,	-1,	-1,	56,	-1,	-1,	-1,	62,	-1,	-1,	-1,	-1,	-1,	-1,	9,	-1,	-1,	-1,	48,	40,	-1,	-1,	15,	30,	20,	-1,	-1,	-1,	-1,	38,	-1,	-1,	-1,	-1,	-1,	-1,	-1|
27,	-1,	-1,	-1,	-1,	-1,	37,	4,	61,	38,	-1,	-1,	20,	33,	60,	-1,	50,	43,	-1,	17,	22,	59,	-1,	-1,	-1,	-1,	-1,	-1,	25,	7,	6,	-1,	-1,	-1,	28,	24,	-1,	26,	-1,	-1,	-1,	-1,	-1,	-1,	-1,	39,	56,	-1,	8,	16,	-1,	-1,	-1,	19,	-1,	-1,	-1,	62,	-1,	-1,	-1,	-1,	-1,	42|
21,	-1,	57,	-1,	60,	-1,	-1,	-1,	-1,	-1,	26,	24,	-1,	64,	39,	-1,	34,	-1,	-1,	-1,	-1,	4,	-1,	40,	-1,	-1,	-1,	-1,	33,	-1,	-1,	20,	15,	-1,	-1,	-1,	-1,	22,	-1,	51,	-1,	3,	-1,	-1,	-1,	-1,	38,	7,	54,	63,	-1,	-1,	42,	-1,	-1,	2,	-1,	-1,	-1,	-1,	55,	-1,	-1,	-1|
-1,	-1,	-1,	-1,	20,	-1,	-1,	-1,	15,	-1,	31,	-1,	6,	5,	21,	-1,	-1,	-1,	-1,	14,	-1,	-1,	1,	-1,	-1,	-1,	-1,	-1,	-1,	8,	-1,	55,	-1,	-1,	56,	53,	42,	-1,	-1,	-1,	-1,	-1,	-1,	16,	62,	-1,	4,	22,	38,	-1,	-1,	18,	-1,	-1,	59,	-1,	-1,	-1,	-1,	-1,	-1,	9,	-1,	36|
-1,	-1,	-1,	-1,	-1,	42,	-1,	-1,	-1,	52,	-1,	-1,	23,	-1,	-1,	-1,	16,	-1,	-1,	-1,	-1,	-1,	-1,	-1,	-1,	12,	-1,	-1,	-1,	-1,	45,	-1,	-1,	43,	-1,	33,	-1,	19,	38,	59,	34,	-1,	63,	8,	-1,	-1,	-1,	-1,	-1,	-1,	-1,	-1,	-1,	-1,	6,	-1,	-1,	17,	7,	41,	32,	46,	18,	-1|
-1,	-1,	-1,	-1,	22,	-1,	-1,	-1,	62,	-1,	-1,	-1,	-1,	50,	37,	-1,	15,	12,	-1,	6,	-1,	8,	-1,	-1,	13,	-1,	-1,	-1,	-1,	-1,	48,	-1,	60,	-1,	18,	-1,	-1,	-1,	-1,	7,	-1,	21,	-1,	32,	-1,	-1,	-1,	23,	55,	56,	-1,	-1,	44,	34,	-1,	-1,	64,	-1,	-1,	-1,	-1,	-1,	-1,	57|
-1,	-1,	-1,	-1,	-1,	-1,	58,	61,	55,	-1,	-1,	-1,	-1,	-1,	-1,	32,	-1,	39,	7,	46,	54,	-1,	33,	-1,	-1,	37,	-1,	21,	-1,	18,	-1,	-1,	8,	-1,	-1,	34,	35,	-1,	-1,	3,	-1,	49,	-1,	-1,	-1,	-1,	2,	-1,	-1,	17,	52,	-1,	48,	-1,	-1,	-1,	-1,	-1,	-1,	29,	24,	26,	-1,	20|
41,	-1,	-1,	-1,	62,	-1,	42,	-1,	-1,	14,	-1,	29,	-1,	45,	27,	8,	-1,	40,	-1,	-1,	31,	55,	59,	-1,	32,	-1,	-1,	26,	16,	22,	2,	1,	-1,	-1,	-1,	63,	-1,	-1,	-1,	-1,	-1,	-1,	-1,	12,	4,	54,	-1,	-1,	19,	-1,	-1,	-1,	-1,	-1,	-1,	-1,	53,	7,	35,	-1,	25,	-1,	-1,	-1|
48,	-1,	19,	37,	-1,	-1,	-1,	-1,	-1,	-1,	-1,	-1,	-1,	12,	54,	39,	-1,	-1,	34,	-1,	-1,	33,	-1,	43,	-1,	5,	14,	-1,	-1,	35,	-1,	-1,	16,	1,	-1,	-1,	-1,	-1,	-1,	-1,	-1,	8,	32,	21,	46,	38,	-1,	41,	29,	6,	-1,	-1,	-1,	-1,	-1,	-1,	55,	-1,	-1,	-1,	-1,	23,	-1,	-1|
17,	-1,	-1,	-1,	-1,	-1,	57,	16,	-1,	24,	-1,	-1,	2,	-1,	-1,	-1,	-1,	-1,	20,	-1,	-1,	-1,	45,	-1,	12,	-1,	10,	-1,	56,	-1,	44,	-1,	-1,	-1,	-1,	21,	14,	-1,	-1,	62,	30,	-1,	-1,	-1,	63,	13,	-1,	43,	25,	-1,	-1,	28,	11,	-1,	52,	33,	-1,	-1,	-1,	-1,	9,	22,	-1,	58|
4,	59,	-1,	-1,	12,	-1,	-1,	-1,	-1,	13,	-1,	-1,	44,	-1,	56,	-1,	-1,	36,	46,	-1,	-1,	-1,	8,	63,	31,	7,	24,	-1,	21,	15,	43,	-1,	-1,	-1,	-1,	9,	-1,	-1,	-1,	-1,	-1,	48,	25,	-1,	-1,	-1,	34,	18,	-1,	23,	-1,	-1,	2,	-1,	53,	39,	-1,	-1,	3,	-1,	11,	47,	-1,	-1|
34,	-1,	1,	-1,	51,	-1,	-1,	-1,	64,	-1,	22,	-1,	-1,	-1,	61,	-1,	-1,	-1,	10,	-1,	9,	47,	-1,	56,	-1,	-1,	-1,	-1,	-1,	4,	3,	-1,	49,	-1,	-1,	-1,	-1,	-1,	-1,	-1,	-1,	31,	57,	-1,	-1,	45,	6,	53,	5,	42,	-1,	16,	-1,	-1,	-1,	15,	18,	14,	60,	-1,	-1,	-1,	17,	-1|
-1,	-1,	-1,	31,	55,	-1,	7,	9,	18,	-1,	30,	-1,	-1,	-1,	-1,	-1,	49,	-1,	-1,	-1,	-1,	-1,	-1,	15,	-1,	-1,	-1,	-1,	-1,	47,	28,	-1,	53,	-1,	-1,	-1,	-1,	42,	-1,	-1,	-1,	-1,	64,	-1,	56,	50,	14,	-1,	-1,	57,	-1,	-1,	-1,	63,	-1,	-1,	-1,	6,	1,	51,	-1,	-1,	41,	-1|
-1,	5,	25,	18,	-1,	-1,	-1,	53,	9,	43,	49,	-1,	-1,	-1,	-1,	63,	1,	58,	-1,	-1,	-1,	-1,	-1,	-1,	45,	54,	30,	-1,	57,	-1,	11,	-1,	56,	26,	-1,	29,	-1,	28,	34,	-1,	-1,	-1,	-1,	2,	7,	-1,	23,	51,	-1,	-1,	-1,	-1,	13,	-1,	36,	-1,	8,	-1,	15,	50,	12,	62,	32,	-1|
-1,	15,	-1,	-1,	-1,	-1,	-1,	64,	-1,	-1,	-1,	6,	-1,	60,	-1,	-1,	-1,	-1,	17,	-1,	23,	-1,	14,	-1,	-1,	52,	-1,	-1,	34,	-1,	36,	-1,	-1,	-1,	12,	-1,	8,	-1,	-1,	-1,	-1,	27,	-1,	-1,	-1,	28,	-1,	-1,	-1,	20,	1,	-1,	-1,	-1,	3,	-1,	63,	13,	-1,	-1,	-1,	38,	-1,	30|
29,	7,	42,	41,	-1,	-1,	-1,	-1,	-1,	5,	62,	19,	-1,	1,	58,	56,	38,	-1,	8,	47,	-1,	31,	24,	49,	-1,	3,	28,	11,	59,	39,	34,	-1,	61,	21,	52,	-1,	-1,	17,	-1,	-1,	64,	-1,	48,	-1,	-1,	57,	51,	-1,	-1,	10,	-1,	37,	-1,	-1,	-1,	-1,	33,	27,	-1,	55,	-1,	-1,	15,	-1|
52,	21,	-1,	-1,	-1,	49,	-1,	-1,	-1,	50,	-1,	12,	-1,	53,	-1,	42,	64,	29,	-1,	-1,	-1,	45,	17,	-1,	-1,	-1,	23,	-1,	14,	-1,	15,	-1,	57,	-1,	-1,	-1,	-1,	44,	-1,	4,	36,	-1,	11,	-1,	-1,	-1,	-1,	-1,	-1,	-1,	-1,	-1,	-1,	30,	20,	19,	-1,	51,	-1,	-1,	-1,	-1,	26,	-1|
31,	12,	18,	47,	-1,	-1,	-1,	-1,	-1,	-1,	54,	-1,	-1,	-1,	-1,	14,	44,	-1,	-1,	-1,	-1,	-1,	-1,	-1,	-1,	57,	-1,	-1,	-1,	-1,	-1,	-1,	-1,	35,	-1,	-1,	-1,	-1,	-1,	-1,	41,	40,	-1,	55,	-1,	62,	37,	19,	45,	3,	13,	-1,	15,	42,	51,	28,	-1,	-1,	23,	-1,	-1,	-1,	25,	8|
-1,	38,	-1,	-1,	53,	-1,	55,	62,	-1,	61,	-1,	11,	8,	48,	13,	15,	57,	-1,	-1,	-1,	-1,	-1,	-1,	-1,	47,	46,	-1,	35,	-1,	40,	21,	31,	-1,	-1,	-1,	-1,	9,	20,	-1,	-1,	-1,	-1,	60,	26,	-1,	-1,	-1,	1,	-1,	59,	-1,	2,	-1,	41,	64,	-1,	-1,	-1,	22,	44,	49,	-1,	-1,	-1|
35,	1,	-1,	-1,	-1,	26,	20,	-1,	-1,	64,	21,	-1,	37,	28,	-1,	45,	-1,	-1,	-1,	62,	-1,	34,	13,	-1,	55,	53,	-1,	33,	-1,	12,	-1,	-1,	-1,	-1,	63,	23,	54,	-1,	-1,	-1,	15,	47,	-1,	-1,	-1,	-1,	-1,	-1,	49,	-1,	18,	-1,	27,	-1,	-1,	-1,	-1,	4,	-1,	6,	-1,	14,	-1,	16|
-1,	6,	-1,	-1,	-1,	-1,	-1,	2,	23,	-1,	-1,	38,	-1,	-1,	52,	-1,	55,	-1,	15,	-1,	-1,	42,	-1,	25,	-1,	-1,	51,	27,	62,	-1,	-1,	64,	-1,	48,	41,	-1,	-1,	-1,	8,	-1,	53,	-1,	-1,	49,	-1,	-1,	-1,	3,	-1,	-1,	56,	36,	-1,	-1,	54,	-1,	-1,	-1,	43,	-1,	-1,	18,	-1,	-1|
-1,	-1,	-1,	-1,	-1,	10,	-1,	46,	-1,	-1,	-1,	-1,	-1,	41,	49,	-1,	53,	5,	-1,	-1,	32,	-1,	-1,	-1,	38,	-1,	20,	-1,	-1,	-1,	50,	60,	2,	-1,	-1,	3,	-1,	-1,	-1,	11,	21,	44,	-1,	-1,	-1,	8,	27,	31,	-1,	7,	55,	14,	-1,	-1,	-1,	-1,	-1,	-1,	-1,	-1,	-1,	59,	24,	-1|
-1,	-1,	-1,	15,	56,	-1,	-1,	28,	22,	-1,	-1,	33,	-1,	59,	44,	17,	-1,	23,	60,	1,	10,	21,	40,	-1,	-1,	58,	2,	-1,	-1,	48,	7,	26,	25,	51,	-1,	30,	64,	5,	-1,	-1,	32,	-1,	-1,	4,	-1,	-1,	42,	-1,	-1,	-1,	16,	39,	-1,	-1,	63,	-1,	-1,	47,	-1,	-1,	54,	-1,	53,	13|];
