sudoku-ls/benchmarks_LEQ/INST_64x64/40/inst64x64_40_62.txt
8
1
-1	-1	-1	33	-1	-1	-1	-1	48	-1	-1	-1	10	-1	15	-1	-1	-1	-1	61	37	26	22	-1	-1	-1	-1	-1	53	17	-1	54	29	3	-1	-1	-1	31	16	-1	55	-1	6	34	44	-1	46	9	-1	-1	-1	-1	45	21	-1	-1	60	-1	51	-1	59	20	4	63
11	-1	-1	10	-1	37	31	13	-1	-1	61	53	-1	-1	-1	-1	48	-1	4	42	-1	14	-1	23	-1	-1	-1	-1	-1	41	-1	-1	-1	-1	15	-1	-1	55	-1	27	-1	62	-1	-1	-1	63	-1	-1	-1	-1	57	34	-1	-1	-1	-1	-1	56	29	-1	-1	-1	-1	-1
-1	-1	-1	-1	-1	-1	-1	-1	-1	-1	-1	-1	-1	31	62	-1	-1	24	-1	-1	-1	-1	57	-1	-1	-1	13	52	60	1	-1	-1	58	7	-1	38	-1	-1	-1	-1	43	-1	26	10	49	-1	-1	-1	-1	47	-1	-1	-1	29	2	-1	48	-1	-1	-1	-1	50	22	18
7	-1	-1	-1	24	-1	-1	-1	27	-1	51	-1	14	-1	23	21	45	-1	-1	-1	63	-1	39	-1	-1	61	-1	36	47	31	58	22	-1	8	-1	-1	18	12	28	-1	2	57	-1	64	-1	-1	-1	37	-1	43	10	-1	-1	-1	-1	56	52	-1	53	19	-1	25	-1	-1
-1	49	28	-1	-1	-1	-1	-1	-1	-1	34	26	-1	6	-1	-1	-1	-1	-1	-1	-1	-1	-1	7	-1	-1	-1	-1	64	44	57	9	-1	37	-1	10	45	-1	35	-1	-1	-1	16	-1	29	19	33	13	52	-1	12	27	59	-1	-1	63	-1	38	32	24	42	-1	-1	11
-1	-1	17	-1	-1	-1	-1	51	-1	40	-1	39	-1	58	-1	-1	-1	-1	-1	-1	-1	10	-1	-1	26	-1	29	8	-1	-1	-1	-1	-1	60	-1	2	-1	-1	-1	-1	22	-1	-1	-1	61	1	35	-1	-1	-1	7	44	23	-1	-1	31	-1	57	-1	-1	16	49	-1	-1
57	30	43	59	41	-1	26	-1	-1	-1	11	35	13	-1	-1	-1	60	6	2	33	27	49	-1	-1	37	62	-1	-1	-1	-1	14	-1	-1	46	-1	61	52	25	-1	-1	-1	45	-1	-1	-1	-1	-1	4	51	-1	-1	42	18	16	-1	-1	31	28	-1	-1	-1	-1	-1	-1
-1	-1	64	-1	6	-1	-1	47	43	1	-1	-1	-1	-1	-1	-1	29	54	-1	59	8	-1	52	34	-1	-1	-1	15	35	-1	-1	-1	-1	-1	49	13	-1	-1	-1	14	51	11	-1	60	23	-1	-1	-1	4	-1	36	5	-1	-1	41	26	37	-1	-1	-1	45	10	-1	-1
-1	-1	11	-1	-1	2	-1	-1	-1	45	-1	-1	5	47	-1	44	9	41	-1	-1	21	-1	-1	24	50	-1	-1	-1	-1	-1	53	-1	-1	-1	-1	59	3	49	25	-1	8	-1	-1	48	-1	-1	60	63	32	46	-1	43	-1	-1	-1	4	-1	-1	64	-1	-1	-1	-1	-1
-1	50	-1	-1	-1	-1	23	-1	-1	57	-1	-1	12	-1	-1	-1	11	22	-1	37	-1	-1	-1	-1	-1	-1	15	-1	-1	38	17	-1	62	-1	4	27	-1	-1	39	52	-1	18	-1	-1	58	26	29	2	63	41	-1	-1	20	-1	-1	45	32	53	36	46	13	21	35	-1
-1	-1	-1	58	-1	18	-1	5	-1	9	63	-1	-1	27	-1	-1	-1	-1	-1	-1	45	57	4	-1	-1	-1	-1	-1	10	33	-1	11	24	-1	-1	-1	-1	-1	-1	-1	-1	17	-1	-1	-1	-1	-1	47	21	37	62	-1	-1	6	-1	25	-1	49	-1	52	2	-1	50	-1
-1	-1	15	-1	7	38	3	-1	-1	37	-1	41	-1	54	43	-1	-1	-1	-1	34	33	-1	42	47	35	20	-1	57	63	32	-1	18	-1	58	2	-1	-1	9	-1	-1	-1	-1	46	52	-1	4	-1	-1	13	28	23	8	-1	-1	-1	1	61	24	19	11	44	-1	-1	-1
-1	-1	-1	-1	52	-1	-1	33	32	-1	53	-1	-1	11	-1	38	31	10	43	63	-1	-1	7	-1	27	-1	12	19	-1	61	-1	-1	-1	-1	8	-1	-1	-1	-1	21	-1	-1	-1	59	-1	-1	-1	14	-1	-1	24	-1	-1	-1	-1	-1	-1	-1	-1	-1	-1	-1	-1	-1
42	-1	-1	39	37	-1	30	35	-1	-1	-1	-1	-1	-1	28	-1	-1	-1	-1	-1	-1	29	-1	-1	-1	36	-1	49	2	23	4	-1	-1	47	-1	-1	-1	56	-1	6	-1	-1	54	-1	50	-1	-1	-1	27	33	-1	-1	-1	11	57	38	7	-1	26	-1	-1	-1	10	-1
-1	-1	-1	-1	-1	-1	-1	19	21	3	-1	1	7	-1	64	4	8	28	38	-1	52	-1	26	55	-1	-1	-1	-1	48	25	62	-1	-1	15	35	-1	-1	-1	46	-1	49	33	-1	-1	-1	-1	61	-1	-1	-1	-1	50	14	-1	-1	-1	-1	-1	-1	-1	41	63	-1	51
55	-1	20	-1	-1	-1	47	-1	24	-1	-1	-1	-1	40	-1	2	58	-1	-1	-1	16	-1	49	50	59	22	43	34	31	21	-1	-1	14	38	44	-1	32	-1	5	-1	-1	-1	-1	-1	-1	-1	-1	-1	-1	-1	54	48	-1	-1	-1	35	-1	12	33	-1	28	-1	1	9
33	-1	-1	-1	-1	-1	-1	31	-1	-1	60	46	22	3	-1	-1	-1	37	-1	44	29	-1	43	-1	-1	-1	-1	-1	-1	-1	-1	62	-1	-1	-1	12	49	-1	64	-1	-1	-1	-1	61	-1	-1	39	-1	56	-1	-1	-1	5	8	34	-1	15	-1	4	-1	50	-1	23	-1
-1	28	-1	-1	42	62	-1	-1	31	63	12	-1	29	61	14	-1	-1	-1	-1	-1	19	-1	47	-1	-1	-1	-1	-1	37	54	60	-1	-1	-1	6	-1	55	-1	26	-1	-1	-1	21	57	-1	23	43	-1	-1	25	27	-1	-1	-1	9	-1	-1	2	-1	5	-1	-1	58	39
61	-1	-1	7	-1	46	-1	6	45	-1	-1	52	19	-1	-1	37	23	-1	-1	-1	-1	13	58	-1	-1	-1	-1	-1	-1	53	-1	35	-1	17	-1	-1	-1	21	18	-1	-1	-1	4	-1	22	-1	41	62	43	-1	-1	10	-1	-1	-1	44	14	-1	-1	-1	-1	-1	9	-1
-1	-1	58	26	18	15	-1	-1	-1	-1	35	-1	28	-1	-1	64	4	-1	61	52	57	-1	-1	-1	17	-1	-1	30	27	-1	24	-1	-1	2	5	-1	-1	-1	29	45	-1	-1	-1	-1	53	-1	-1	-1	20	-1	-1	-1	-1	-1	49	-1	42	-1	38	56	48	51	-1	-1
-1	-1	52	-1	47	23	-1	-1	-1	39	24	-1	-1	-1	-1	-1	28	-1	-1	-1	-1	-1	54	-1	3	10	-1	31	11	-1	-1	-1	1	-1	-1	19	-1	30	-1	44	-1	-1	-1	46	9	6	-1	-1	-1	-1	17	4	-1	-1	-1	-1	-1	61	25	13	26	40	45	29
39	-1	-1	11	-1	-1	51	-1	-1	7	13	-1	-1	-1	-1	1	2	59	31	60	-1	20	-1	-1	-1	-1	-1	-1	28	-1	-1	49	42	61	46	56	-1	-1	4	-1	-1	29	-1	27	-1	-1	-1	24	22	-1	-1	-1	63	-1	-1	53	-1	-1	37	-1	3	57	-1	-1
37	22	-1	-1	-1	14	44	-1	-1	49	-1	56	-1	-1	-1	-1	-1	-1	45	-1	36	-1	-1	3	2	-1	-1	-1	-1	-1	23	-1	9	59	-1	25	-1	27	-1	-1	31	-1	-1	33	-1	-1	19	-1	-1	26	28	-1	-1	47	-1	30	-1	-1	-1	10	-1	-1	-1	46
-1	27	-1	3	4	5	-1	24	-1	15	48	-1	57	26	-1	-1	39	38	-1	-1	-1	-1	-1	-1	-1	-1	-1	-1	29	-1	52	-1	-1	-1	-1	7	28	-1	31	-1	-1	-1	14	56	-1	-1	-1	-1	42	-1	-1	46	41	-1	-1	-1	62	30	6	22	-1	-1	12	49
-1	-1	-1	-1	-1	-1	-1	27	-1	-1	-1	-1	49	-1	19	52	-1	62	42	31	-1	-1	5	48	-1	25	4	-1	22	-1	-1	-1	-1	-1	-1	18	-1	-1	53	37	-1	-1	29	-1	-1	11	-1	39	2	-1	-1	-1	26	-1	7	32	-1	-1	-1	17	-1	24	60	6
-1	3	22	-1	31	-1	-1	-1	-1	48	-1	9	-1	56	-1	-1	-1	-1	-1	25	15	-1	-1	51	-1	-1	57	-1	61	62	-1	10	6	-1	39	20	-1	-1	-1	-1	1	32	-1	-1	-1	21	53	30	24	-1	-1	-1	-1	33	37	-1	12	-1	-1	-1	-1	35	36	-1
10	37	-1	-1	-1	55	64	-1	-1	22	39	21	-1	-1	-1	35	-1	14	-1	19	-1	-1	28	-1	29	32	-1	-1	-1	50	-1	-1	-1	-1	27	-1	25	-1	56	63	62	4	7	47	54	-1	-1	-1	23	-1	-1	-1	-1	-1	-1	-1	-1	-1	40	-1	-1	-1	-1	-1
-1	-1	34	-1	-1	39	-1	-1	-1	-1	15	-1	-1	57	32	-1	-1	52	-1	35	-1	22	-1	-1	21	27	-1	-1	-1	26	64	12	38	-1	-1	-1	10	51	-1	-1	-1	-1	-1	-1	-1	-1	28	-1	59	-1	4	-1	-1	48	-1	-1	-1	-1	-1	-1	-1	-1	-1	-1
59	4	-1	-1	-1	-1	-1	1	34	60	-1	-1	-1	-1	-1	-1	37	-1	-1	-1	-1	63	2	21	44	-1	56	-1	-1	45	-1	-1	-1	62	9	-1	12	-1	-1	58	-1	-1	-1	22	-1	-1	-1	-1	35	54	-1	-1	43	-1	-1	-1	11	-1	-1	-1	-1	-1	-1	-1
-1	-1	62	-1	61	19	-1	-1	28	-1	-1	-1	45	-1	-1	6	-1	-1	32	-1	-1	-1	-1	-1	34	42	-1	-1	-1	24	-1	14	55	-1	-1	-1	-1	35	-1	47	-1	-1	10	-1	51	-1	-1	40	-1	-1	-1	9	-1	20	-1	12	-1	15	-1	1	63	39	-1	-1
25	-1	5	-1	15	-1	33	32	-1	2	41	-1	-1	-1	30	-1	-1	4	-1	-1	39	38	-1	59	-1	-1	53	-1	-1	-1	9	-1	-1	-1	29	-1	-1	-1	-1	22	-1	37	-1	-1	-1	-1	44	-1	64	-1	-1	63	-1	-1	-1	-1	-1	-1	-1	-1	-1	54	-1	19
53	-1	-1	-1	-1	-1	-1	-1	3	-1	23	63	46	-1	-1	50	-1	-1	-1	13	-1	-1	29	-1	-1	-1	-1	60	-1	-1	33	19	5	-1	26	-1	-1	-1	-1	-1	59	-1	-1	-1	-1	20	9	-1	-1	-1	42	22	10	39	55	-1	51	25	-1	4	-1	-1	-1	-1
3	2	51	-1	-1	-1	39	-1	-1	-1	8	-1	40	16	-1	-1	-1	11	-1	5	13	-1	34	-1	25	-1	-1	-1	-1	-1	-1	50	12	-1	-1	-1	-1	-1	-1	-1	-1	53	-1	-1	-1	-1	-1	-1	-1	22	-1	-1	38	56	-1	-1	-1	59	17	14	62	30	49	-1
-1	61	-1	-1	-1	-1	48	-1	-1	-1	-1	28	-1	55	1	-1	-1	-1	29	45	-1	-1	36	8	-1	-1	44	42	15	43	-1	-1	-1	31	-1	62	56	6	54	-1	4	-1	59	-1	3	-1	25	-1	-1	-1	-1	-1	-1	-1	33	-1	-1	-1	-1	-1	64	12	-1	-1
40	-1	47	-1	27	-1	12	23	20	-1	-1	44	-1	-1	-1	-1	21	-1	54	-1	-1	-1	61	-1	-1	-1	-1	14	46	28	49	-1	-1	-1	45	-1	-1	1	7	55	-1	13	62	18	-1	-1	11	-1	6	51	-1	31	-1	-1	-1	-1	41	34	58	25	-1	29	16	22
18	-1	-1	54	-1	-1	-1	-1	-1	-1	33	-1	-1	-1	-1	26	32	-1	52	43	-1	-1	-1	-1	6	-1	-1	41	7	-1	61	3	36	11	25	-1	-1	-1	-1	-1	44	-1	-1	-1	-1	-1	-1	-1	-1	-1	29	58	-1	-1	-1	13	39	-1	-1	-1	60	5	-1	23
-1	41	-1	30	57	-1	28	-1	-1	25	18	4	-1	24	-1	-1	-1	46	-1	-1	60	-1	51	-1	53	-1	62	23	-1	-1	10	27	22	33	-1	49	-1	2	-1	-1	6	5	15	40	-1	12	-1	-1	-1	-1	-1	-1	-1	43	-1	20	3	48	-1	-1	-1	-1	63	-1
62	-1	-1	-1	-1	-1	-1	-1	50	-1	46	-1	58	-1	-1	-1	25	-1	1	-1	-1	28	12	-1	22	-1	-1	-1	38	5	-1	-1	13	-1	37	-1	-1	-1	15	16	-1	41	-1	-1	-1	9	-1	21	-1	-1	-1	7	-1	-1	-1	-1	-1	36	-1	-1	-1	-1	54	53
-1	-1	45	53	-1	31	-1	21	-1	-1	-1	-1	-1	2	-1	60	-1	42	55	-1	6	62	-1	4	39	-1	-1	56	13	64	-1	52	47	-1	-1	17	26	-1	-1	-1	-1	22	20	14	38	-1	57	-1	-1	-1	-1	-1	36	-1	25	40	-1	-1	-1	18	-1	-1	11	43
9	-1	46	-1	1	11	-1	-1	-1	-1	-1	31	-1	17	-1	-1	-1	-1	-1	3	-1	-1	-1	-1	63	-1	-1	-1	30	-1	54	-1	-1	41	-1	-1	51	48	57	-1	-1	-1	-1	7	-1	49	10	-1	-1	-1	-1	-1	-1	-1	-1	-1	-1	20	-1	45	-1	-1	-1	55
-1	-1	56	-1	-1	-1	-1	52	-1	44	-1	54	59	-1	-1	46	-1	47	25	23	-1	37	-1	9	64	43	-1	16	51	2	63	58	-1	57	36	31	-1	50	-1	17	13	12	-1	-1	-1	61	-1	33	60	-1	11	49	40	-1	-1	-1	-1	-1	-1	-1	-1	-1	-1	28
28	-1	7	-1	49	-1	5	14	42	-1	-1	-1	-1	-1	18	34	-1	53	-1	-1	-1	-1	44	-1	57	-1	-1	-1	-1	10	-1	-1	-1	-1	-1	-1	39	29	-1	61	-1	9	-1	-1	59	48	40	55	-1	-1	-1	-1	-1	13	-1	-1	38	-1	-1	-1	58	-1	-1	-1
-1	18	-1	1	-1	54	-1	-1	61	-1	40	-1	20	33	60	-1	50	-1	-1	17	-1	-1	-1	-1	-1	-1	-1	-1	-1	-1	-1	-1	-1	-1	-1	-1	44	-1	-1	-1	57	-1	5	-1	30	-1	56	35	-1	-1	-1	3	-1	-1	47	-1	-1	62	-1	-1	-1	13	-1	-1
21	-1	57	-1	60	-1	-1	-1	12	-1	-1	-1	48	-1	39	-1	-1	-1	28	-1	18	-1	-1	-1	1	11	-1	-1	-1	-1	32	20	15	-1	-1	-1	23	-1	37	51	-1	-1	-1	-1	10	-1	-1	7	54	63	-1	35	42	-1	50	-1	25	-1	61	53	-1	45	-1	-1
63	-1	-1	40	20	-1	-1	26	-1	-1	31	13	-1	-1	-1	-1	-1	-1	-1	-1	48	-1	-1	45	61	60	54	39	-1	-1	-1	-1	-1	49	-1	-1	42	-1	-1	2	19	-1	-1	-1	-1	-1	-1	-1	-1	32	33	-1	-1	27	-1	-1	-1	-1	-1	-1	-1	-1	37	-1
-1	13	-1	24	-1	-1	11	-1	-1	52	-1	-1	23	29	-1	-1	-1	-1	-1	-1	55	-1	56	-1	40	12	26	47	44	27	-1	-1	-1	-1	54	-1	-1	-1	-1	-1	-1	25	-1	-1	-1	60	50	-1	-1	-1	-1	51	31	-1	-1	-1	-1	-1	7	-1	-1	-1	-1	-1
47	17	2	-1	-1	33	-1	-1	-1	-1	-1	30	35	50	-1	-1	-1	-1	-1	6	-1	-1	-1	11	13	-1	-1	59	42	-1	48	-1	-1	-1	-1	-1	-1	-1	-1	7	-1	-1	53	32	-1	-1	1	23	55	56	-1	25	-1	34	-1	-1	64	40	10	-1	51	-1	52	-1
-1	62	31	-1	-1	-1	-1	61	55	-1	25	51	1	-1	-1	32	-1	-1	-1	-1	-1	41	-1	64	-1	-1	-1	-1	-1	-1	-1	-1	-1	-1	14	-1	35	40	10	3	42	-1	45	-1	15	47	2	-1	-1	-1	-1	-1	48	28	12	-1	50	60	11	-1	24	-1	56	-1
41	-1	-1	-1	-1	-1	42	-1	-1	-1	-1	-1	-1	45	-1	-1	-1	-1	13	48	-1	-1	59	-1	-1	-1	49	-1	-1	-1	2	1	39	-1	-1	-1	-1	-1	61	15	11	60	-1	-1	4	-1	3	10	-1	30	-1	-1	-1	-1	56	-1	53	7	-1	57	-1	-1	20	33
48	-1	-1	-1	-1	50	-1	-1	-1	-1	-1	-1	15	12	54	39	7	-1	34	57	-1	-1	-1	-1	-1	-1	14	-1	-1	-1	59	-1	-1	-1	22	-1	31	10	-1	-1	9	8	-1	-1	46	38	20	41	-1	6	-1	17	-1	4	-1	-1	-1	45	52	-1	-1	-1	-1	24
-1	26	-1	8	-1	-1	57	-1	-1	-1	-1	42	2	46	41	-1	51	35	-1	53	-1	-1	-1	60	-1	23	-1	-1	-1	-1	44	-1	-1	-1	59	-1	-1	-1	-1	-1	-1	-1	-1	-1	-1	-1	-1	-1	25	34	32	28	11	-1	52	33	29	-1	39	40	9	-1	-1	58
4	-1	-1	14	12	22	-1	30	-1	-1	-1	37	44	-1	-1	55	-1	36	-1	-1	-1	19	8	-1	31	-1	24	50	21	-1	-1	33	-1	64	-1	9	-1	32	-1	-1	-1	48	-1	62	52	29	34	18	-1	23	40	-1	2	-1	-1	-1	-1	16	3	49	-1	-1	-1	-1
34	24	1	2	-1	28	35	-1	-1	23	-1	20	33	-1	-1	40	-1	-1	-1	-1	-1	47	41	56	-1	39	-1	-1	-1	4	-1	-1	49	50	11	48	-1	-1	-1	-1	26	-1	-1	44	19	45	6	-1	-1	-1	-1	16	54	-1	-1	-1	18	14	60	-1	43	-1	-1	-1
-1	39	40	31	55	-1	-1	9	18	-1	-1	3	32	21	-1	25	-1	-1	-1	-1	-1	11	16	15	-1	38	48	-1	-1	-1	-1	46	-1	-1	13	52	58	-1	-1	33	35	-1	-1	17	-1	-1	14	-1	-1	-1	-1	12	-1	-1	-1	-1	-1	6	1	-1	-1	-1	-1	-1
-1	-1	-1	-1	33	-1	-1	-1	9	-1	-1	-1	31	-1	59	-1	1	58	-1	-1	61	-1	3	-1	45	-1	-1	-1	57	-1	11	17	-1	-1	60	-1	-1	-1	34	35	37	-1	22	-1	7	-1	-1	-1	-1	-1	-1	21	-1	-1	36	-1	-1	46	15	50	12	62	32	44
-1	-1	-1	-1	-1	56	10	-1	-1	-1	-1	-1	-1	-1	7	47	-1	-1	17	21	23	-1	-1	-1	62	-1	-1	-1	-1	55	36	-1	40	44	-1	37	-1	-1	-1	5	-1	27	-1	39	-1	-1	58	49	31	-1	1	45	-1	-1	3	24	-1	-1	-1	26	-1	-1	-1	-1
-1	-1	-1	41	-1	9	32	-1	-1	-1	-1	-1	-1	-1	58	56	38	-1	8	-1	-1	-1	-1	49	-1	3	28	11	-1	39	-1	-1	61	-1	-1	-1	-1	-1	-1	40	64	-1	48	-1	-1	57	-1	-1	-1	-1	-1	-1	-1	-1	-1	46	33	-1	-1	-1	-1	-1	-1	-1
-1	21	27	25	58	-1	16	-1	-1	-1	-1	12	3	53	-1	42	-1	-1	-1	2	59	45	17	18	54	-1	23	-1	14	-1	15	56	-1	-1	-1	-1	62	-1	-1	-1	36	-1	-1	-1	5	-1	-1	46	48	35	-1	38	-1	30	-1	19	-1	51	-1	-1	-1	-1	-1	-1
-1	-1	-1	47	-1	-1	-1	-1	-1	-1	-1	-1	36	-1	-1	14	-1	-1	48	-1	-1	-1	46	-1	-1	57	-1	-1	-1	-1	5	24	7	-1	-1	-1	38	-1	-1	49	-1	-1	9	-1	-1	-1	37	19	45	-1	-1	-1	-1	-1	-1	-1	56	-1	-1	34	-1	-1	25	8
14	-1	63	34	53	30	55	-1	-1	61	27	-1	-1	-1	-1	-1	-1	-1	-1	-1	-1	-1	6	54	-1	-1	32	35	-1	40	21	31	37	-1	50	-1	9	-1	-1	18	-1	23	-1	-1	-1	-1	-1	1	17	59	-1	2	33	41	-1	-1	45	3	22	-1	-1	-1	-1	-1
-1	1	-1	48	-1	-1	-1	-1	-1	64	21	60	-1	-1	-1	-1	19	-1	56	62	-1	34	-1	-1	-1	53	17	-1	-1	-1	25	44	-1	29	-1	23	-1	-1	-1	-1	-1	-1	-1	30	-1	-1	22	-1	-1	11	-1	40	27	-1	-1	-1	-1	4	-1	-1	-1	-1	5	16
-1	-1	44	5	19	-1	-1	2	23	-1	7	38	63	35	-1	-1	55	-1	-1	-1	11	-1	20	-1	-1	16	51	-1	-1	30	-1	-1	-1	48	-1	-1	-1	14	-1	-1	53	-1	-1	-1	12	-1	-1	3	-1	50	56	-1	-1	24	-1	57	46	32	-1	-1	-1	18	39	-1
-1	54	-1	-1	-1	10	-1	-1	-1	-1	-1	34	-1	-1	-1	-1	53	-1	37	-1	-1	-1	-1	-1	38	29	20	45	18	-1	50	-1	-1	56	-1	-1	36	-1	-1	-1	-1	44	13	35	-1	-1	-1	-1	61	7	-1	-1	58	-1	23	-1	-1	-1	12	62	19	59	-1	-1
-1	-1	-1	-1	-1	3	-1	28	-1	46	-1	33	-1	59	-1	17	-1	-1	-1	1	-1	-1	-1	-1	49	-1	-1	-1	-1	-1	-1	-1	-1	-1	-1	30	-1	5	-1	-1	-1	20	-1	4	-1	-1	42	-1	34	-1	16	39	8	-1	63	-1	36	47	-1	-1	54	11	-1	13
64 
45 23 37 45
26 37 43 59
19 33 2 15
41 55 6 29
15 58 23 29
29 7 32 44
29 21 7 32
26 43 1 10
27 22 39 27
59 25 43 3
20 58 63 40
11 39 23 20
60 15 13 47
43 25 21 34
53 56 40 52
21 19 15 48
32 6 16 53
49 56 31 43
37 26 41 62
11 15 48 64
47 42 36 60
48 56 20 24
57 5 24 12
29 46 28 13
63 54 22 46
44 11 60 44
41 33 40 24
33 49 62 36
49 12 54 28
39 39 34 9
10 16 32 26
17 35 41 6
3 38 42 62
49 13 46 41
18 33 9 23
25 54 50 10
39 23 32 14
4 43 26 51
61 45 23 40
49 18 31 12
25 6 1 19
61 59 56 63
50 24 11 57
13 24 2 2
33 26 46 31
5 25 36 54
17 38 49 43
51 16 13 6
10 14 1 26
30 41 23 4
61 15 39 10
63 22 62 15
52 55 50 32
11 17 26 28
10 54 24 3
5 21 19 25
64 2 21 30
9 30 47 39
15 5 38 51
40 4 58 8
16 12 31 38
47 9 20 14
8 34 48 14
56 8 11 40
